(set-logic QF_UF)
(declare-fun A0 () Bool)
(declare-fun A1 () Bool)
(declare-fun A2 () Bool)
(declare-fun A3 () Bool)
(declare-fun A4 () Bool)
(declare-fun A5 () Bool)
(declare-fun A6 () Bool)
(declare-fun A7 () Bool)
(declare-fun A8 () Bool)
(declare-fun A9 () Bool)
(declare-fun A10 () Bool)
(declare-fun A11 () Bool)
(declare-fun A12 () Bool)
(declare-fun A13 () Bool)
(declare-fun A14 () Bool)
(declare-fun A16 () Bool)
(declare-fun A17 () Bool)
(declare-fun A18 () Bool)
(declare-fun A20 () Bool)
(declare-fun A21 () Bool)
(declare-fun A22 () Bool)
(declare-fun A23 () Bool)
(declare-fun A24 () Bool)
(assert (let ((.def_0 (not A12))) (let ((.def_1 (= .def_0 A0))) (let ((.def_2 (not .def_1))) (let ((.def_3 (not A8))) (let ((.def_4 (not A0))) (let ((.def_5 (and .def_4 .def_3))) (let ((.def_6 (not .def_5))) (let ((.def_7 (or .def_6 .def_2))) (let ((.def_8 (not A11))) (let ((.def_9 (and A14 .def_8))) (let ((.def_10 (not .def_9))) (let ((.def_11 (not A5))) (let ((.def_12 (not A2))) (let ((.def_13 (or .def_12 .def_11))) (let ((.def_14 (not .def_13))) (let ((.def_15 (or .def_14 .def_10))) (let ((.def_16 (and .def_15 .def_7))) (let ((.def_17 (and .def_4 A4))) (let ((.def_18 (not A6))) (let ((.def_19 (not A4))) (let ((.def_20 (and .def_19 .def_18))) (let ((.def_21 (not .def_20))) (let ((.def_22 (or .def_21 .def_17))) (let ((.def_23 (not A14))) (let ((.def_24 (or .def_23 A22))) (let ((.def_25 (not .def_24))) (let ((.def_26 (and A16 .def_8))) (let ((.def_27 (not .def_26))) (let ((.def_28 (or .def_27 .def_25))) (let ((.def_29 (not .def_28))) (let ((.def_30 (and .def_29 .def_22))) (let ((.def_31 (and .def_30 .def_16))) (let ((.def_32 (not A20))) (let ((.def_33 (not A16))) (let ((.def_34 (or .def_33 .def_32))) (let ((.def_35 (= A18 .def_3))) (let ((.def_36 (not .def_35))) (let ((.def_37 (or .def_36 .def_34))) (let ((.def_38 (not .def_37))) (let ((.def_39 (= A1 .def_19))) (let ((.def_40 (not .def_39))) (let ((.def_41 (not A9))) (let ((.def_42 (and .def_41 .def_12))) (let ((.def_43 (or .def_42 .def_40))) (let ((.def_44 (not .def_43))) (let ((.def_45 (and .def_44 .def_38))) (let ((.def_46 (not .def_45))) (let ((.def_47 (or A5 A13))) (let ((.def_48 (not A24))) (let ((.def_49 (or .def_48 A5))) (let ((.def_50 (= .def_49 .def_47))) (let ((.def_51 (or .def_48 A17))) (let ((.def_52 (not .def_51))) (let ((.def_53 (not A1))) (let ((.def_54 (not A10))) (let ((.def_55 (or .def_54 .def_53))) (let ((.def_56 (and .def_55 .def_52))) (let ((.def_57 (or .def_56 .def_50))) (let ((.def_58 (and .def_57 .def_46))) (let ((.def_59 (not .def_58))) (let ((.def_60 (and .def_59 .def_31))) (let ((.def_61 (not .def_60))) (let ((.def_62 (and .def_8 .def_19))) (let ((.def_63 (not .def_62))) (let ((.def_64 (not A23))) (let ((.def_65 (or A1 .def_64))) (let ((.def_66 (not .def_65))) (let ((.def_67 (and .def_66 .def_63))) (let ((.def_68 (not .def_67))) (let ((.def_69 (or A16 A23))) (let ((.def_70 (not .def_69))) (let ((.def_71 (and A8 A5))) (let ((.def_72 (not .def_71))) (let ((.def_73 (and .def_72 .def_70))) (let ((.def_74 (and .def_73 .def_68))) (let ((.def_75 (not A3))) (let ((.def_76 (and A14 .def_75))) (let ((.def_77 (not .def_76))) (let ((.def_78 (and A5 .def_12))) (let ((.def_79 (and .def_78 .def_77))) (let ((.def_80 (not .def_79))) (let ((.def_81 (not A18))) (let ((.def_82 (and .def_81 A0))) (let ((.def_83 (or .def_33 A5))) (let ((.def_84 (not .def_83))) (let ((.def_85 (or .def_84 .def_82))) (let ((.def_86 (not .def_85))) (let ((.def_87 (or .def_86 .def_80))) (let ((.def_88 (not .def_87))) (let ((.def_89 (and .def_88 .def_74))) (let ((.def_90 (= .def_41 .def_12))) (let ((.def_91 (not .def_90))) (let ((.def_92 (and .def_18 A14))) (let ((.def_93 (not .def_92))) (let ((.def_94 (and .def_93 .def_91))) (let ((.def_95 (not .def_94))) (let ((.def_96 (not A13))) (let ((.def_97 (and .def_96 .def_11))) (let ((.def_98 (not .def_97))) (let ((.def_99 (or A9 A4))) (let ((.def_100 (not .def_99))) (let ((.def_101 (= .def_100 .def_98))) (let ((.def_102 (not .def_101))) (let ((.def_103 (and .def_102 .def_95))) (let ((.def_104 (not .def_103))) (let ((.def_105 (= A1 .def_53))) (let ((.def_106 (not .def_105))) (let ((.def_107 (not A7))) (let ((.def_108 (and A7 .def_107))) (let ((.def_109 (or .def_108 .def_106))) (let ((.def_110 (and A22 .def_75))) (let ((.def_111 (not A21))) (let ((.def_112 (or A3 .def_111))) (let ((.def_113 (and .def_112 .def_110))) (let ((.def_114 (or .def_113 .def_109))) (let ((.def_115 (not .def_114))) (let ((.def_116 (and .def_115 .def_104))) (let ((.def_117 (not .def_116))) (let ((.def_118 (and .def_117 .def_89))) (let ((.def_119 (not .def_118))) (let ((.def_120 (and .def_119 .def_61))) .def_120))))))))))))))))))))))))))))))))))))))))))))))))))))))))))))))))))))))))))))))))))))))))))))))))))))))))))))))))))))))))))
(check-sat)
